12      4       
14      8       18      17      
0       0       0       0       0       4       2       3       4       5       
10      0       0       10      8       1       10      
5       5       0       0       1       2       6       10      
8       0       1       0       0       2       9       10      
4       10      0       0       3       1       7       
7       8       0       0       10      1       11      
2       10      0       0       0       2       8       9       
4       0       0       10      4       1       12      
7       0       0       5       2       1       12      
5       2       7       0       10      1       12      
9       1       0       9       10      1       12      
0       0       0       0       0       0       
